language ESSENCE' 1.0
$ minion Nodes: 4
$ minion TotalTime: 0.000649
$ Savile Row TotalTime: 0.191
letting x_SetExplicitVarSize_tuple2 be [3, 1, 1;int(1..3)]
letting x_SetExplicitVarSize_tuple1 be [true, false, false;int(1..3)]
